c Mesh Graph
c 28 Rows, 30 columns, capacities in range [0, 800]
p max 842 2492
n 1 s
n 842 t
a 1 29 2400
a 1 28 2400
a 1 27 2400
a 1 26 2400
a 1 25 2400
a 1 24 2400
a 1 23 2400
a 1 22 2400
a 1 21 2400
a 1 20 2400
a 1 19 2400
a 1 18 2400
a 1 17 2400
a 1 16 2400
a 1 15 2400
a 1 14 2400
a 1 13 2400
a 1 12 2400
a 1 11 2400
a 1 10 2400
a 1 9 2400
a 1 8 2400
a 1 7 2400
a 1 6 2400
a 1 5 2400
a 1 4 2400
a 1 3 2400
a 1 2 2400
a 2 31 778
a 2 30 487
a 2 57 584
a 3 32 736
a 3 31 594
a 3 30 116
a 4 33 650
a 4 32 493
a 4 31 587
a 5 34 428
a 5 33 763
a 5 32 622
a 6 35 164
a 6 34 60
a 6 33 691
a 7 36 227
a 7 35 541
a 7 34 327
a 8 37 412
a 8 36 537
a 8 35 373
a 9 38 430
a 9 37 168
a 9 36 169
a 10 39 463
a 10 38 731
a 10 37 183
a 11 40 736
a 11 39 468
a 11 38 324
a 12 41 423
a 12 40 603
a 12 39 330
a 13 42 568
a 13 41 270
a 13 40 659
a 14 43 612
a 14 42 57
a 14 41 594
a 15 44 574
a 15 43 230
a 15 42 443
a 16 45 185
a 16 44 120
a 16 43 422
a 17 46 725
a 17 45 799
a 17 44 138
a 18 47 14
a 18 46 371
a 18 45 716
a 19 48 181
a 19 47 92
a 19 46 327
a 20 49 463
a 20 48 274
a 20 47 757
a 21 50 482
a 21 49 597
a 21 48 771
a 22 51 285
a 22 50 126
a 22 49 706
a 23 52 106
a 23 51 337
a 23 50 328
a 24 53 514
a 24 52 130
a 24 51 447
a 25 54 296
a 25 53 125
a 25 52 258
a 26 55 415
a 26 54 546
a 26 53 383
a 27 56 765
a 27 55 235
a 27 54 568
a 28 57 688
a 28 56 151
a 28 55 44
a 29 30 779
a 29 57 477
a 29 56 409
a 30 59 604
a 30 58 785
a 30 85 589
a 31 60 400
a 31 59 755
a 31 58 252
a 32 61 77
a 32 60 661
a 32 59 733
a 33 62 413
a 33 61 540
a 33 60 569
a 34 63 95
a 34 62 187
a 34 61 227
a 35 64 571
a 35 63 796
a 35 62 740
a 36 65 668
a 36 64 379
a 36 63 235
a 37 66 103
a 37 65 498
a 37 64 202
a 38 67 253
a 38 66 93
a 38 65 518
a 39 68 281
a 39 67 502
a 39 66 757
a 40 69 266
a 40 68 642
a 40 67 287
a 41 70 220
a 41 69 445
a 41 68 90
a 42 71 432
a 42 70 730
a 42 69 41
a 43 72 172
a 43 71 498
a 43 70 118
a 44 73 710
a 44 72 276
a 44 71 82
a 45 74 257
a 45 73 568
a 45 72 528
a 46 75 187
a 46 74 354
a 46 73 298
a 47 76 684
a 47 75 107
a 47 74 166
a 48 77 329
a 48 76 625
a 48 75 620
a 49 78 30
a 49 77 133
a 49 76 72
a 50 79 671
a 50 78 420
a 50 77 704
a 51 80 316
a 51 79 509
a 51 78 169
a 52 81 597
a 52 80 550
a 52 79 741
a 53 82 646
a 53 81 219
a 53 80 724
a 54 83 122
a 54 82 652
a 54 81 447
a 55 84 689
a 55 83 380
a 55 82 356
a 56 85 242
a 56 84 229
a 56 83 165
a 57 58 701
a 57 85 394
a 57 84 351
a 58 87 525
a 58 86 565
a 58 113 235
a 59 88 657
a 59 87 188
a 59 86 115
a 60 89 628
a 60 88 92
a 60 87 144
a 61 90 337
a 61 89 260
a 61 88 366
a 62 91 438
a 62 90 552
a 62 89 233
a 63 92 208
a 63 91 476
a 63 90 29
a 64 93 59
a 64 92 122
a 64 91 675
a 65 94 438
a 65 93 30
a 65 92 796
a 66 95 219
a 66 94 194
a 66 93 236
a 67 96 612
a 67 95 544
a 67 94 29
a 68 97 377
a 68 96 330
a 68 95 729
a 69 98 564
a 69 97 444
a 69 96 5
a 70 99 207
a 70 98 139
a 70 97 214
a 71 100 19
a 71 99 505
a 71 98 41
a 72 101 570
a 72 100 289
a 72 99 729
a 73 102 597
a 73 101 318
a 73 100 718
a 74 103 271
a 74 102 544
a 74 101 125
a 75 104 300
a 75 103 91
a 75 102 184
a 76 105 45
a 76 104 326
a 76 103 173
a 77 106 140
a 77 105 706
a 77 104 391
a 78 107 470
a 78 106 187
a 78 105 555
a 79 108 465
a 79 107 543
a 79 106 483
a 80 109 156
a 80 108 308
a 80 107 598
a 81 110 212
a 81 109 349
a 81 108 5
a 82 111 500
a 82 110 629
a 82 109 23
a 83 112 369
a 83 111 547
a 83 110 144
a 84 113 112
a 84 112 223
a 84 111 741
a 85 86 202
a 85 113 406
a 85 112 211
a 86 115 79
a 86 114 131
a 86 141 62
a 87 116 337
a 87 115 521
a 87 114 106
a 88 117 523
a 88 116 627
a 88 115 245
a 89 118 617
a 89 117 309
a 89 116 266
a 90 119 125
a 90 118 459
a 90 117 283
a 91 120 25
a 91 119 463
a 91 118 438
a 92 121 653
a 92 120 37
a 92 119 201
a 93 122 751
a 93 121 180
a 93 120 700
a 94 123 174
a 94 122 472
a 94 121 269
a 95 124 131
a 95 123 682
a 95 122 732
a 96 125 261
a 96 124 295
a 96 123 134
a 97 126 782
a 97 125 400
a 97 124 564
a 98 127 160
a 98 126 197
a 98 125 100
a 99 128 469
a 99 127 14
a 99 126 174
a 100 129 127
a 100 128 296
a 100 127 791
a 101 130 141
a 101 129 285
a 101 128 467
a 102 131 177
a 102 130 485
a 102 129 491
a 103 132 708
a 103 131 737
a 103 130 343
a 104 133 380
a 104 132 557
a 104 131 646
a 105 134 613
a 105 133 488
a 105 132 19
a 106 135 460
a 106 134 173
a 106 133 149
a 107 136 411
a 107 135 737
a 107 134 410
a 108 137 607
a 108 136 388
a 108 135 743
a 109 138 173
a 109 137 114
a 109 136 102
a 110 139 20
a 110 138 456
a 110 137 122
a 111 140 305
a 111 139 122
a 111 138 600
a 112 141 341
a 112 140 612
a 112 139 740
a 113 114 629
a 113 141 506
a 113 140 468
a 114 143 385
a 114 142 351
a 114 169 728
a 115 144 425
a 115 143 721
a 115 142 659
a 116 145 597
a 116 144 70
a 116 143 23
a 117 146 85
a 117 145 31
a 117 144 482
a 118 147 473
a 118 146 773
a 118 145 93
a 119 148 586
a 119 147 426
a 119 146 251
a 120 149 241
a 120 148 100
a 120 147 423
a 121 150 714
a 121 149 699
a 121 148 443
a 122 151 525
a 122 150 191
a 122 149 299
a 123 152 582
a 123 151 210
a 123 150 191
a 124 153 133
a 124 152 137
a 124 151 20
a 125 154 405
a 125 153 795
a 125 152 756
a 126 155 474
a 126 154 370
a 126 153 380
a 127 156 56
a 127 155 51
a 127 154 177
a 128 157 380
a 128 156 143
a 128 155 261
a 129 158 6
a 129 157 394
a 129 156 285
a 130 159 105
a 130 158 368
a 130 157 422
a 131 160 355
a 131 159 362
a 131 158 214
a 132 161 545
a 132 160 660
a 132 159 127
a 133 162 307
a 133 161 403
a 133 160 203
a 134 163 443
a 134 162 422
a 134 161 785
a 135 164 790
a 135 163 729
a 135 162 469
a 136 165 359
a 136 164 309
a 136 163 73
a 137 166 409
a 137 165 37
a 137 164 99
a 138 167 104
a 138 166 649
a 138 165 154
a 139 168 49
a 139 167 134
a 139 166 534
a 140 169 768
a 140 168 555
a 140 167 91
a 141 142 330
a 141 169 769
a 141 168 547
a 142 171 189
a 142 170 447
a 142 197 101
a 143 172 591
a 143 171 650
a 143 170 198
a 144 173 564
a 144 172 634
a 144 171 504
a 145 174 493
a 145 173 654
a 145 172 498
a 146 175 353
a 146 174 726
a 146 173 487
a 147 176 389
a 147 175 376
a 147 174 397
a 148 177 237
a 148 176 530
a 148 175 358
a 149 178 722
a 149 177 615
a 149 176 461
a 150 179 29
a 150 178 705
a 150 177 61
a 151 180 349
a 151 179 451
a 151 178 28
a 152 181 795
a 152 180 103
a 152 179 357
a 153 182 644
a 153 181 300
a 153 180 98
a 154 183 29
a 154 182 3
a 154 181 240
a 155 184 682
a 155 183 501
a 155 182 4
a 156 185 160
a 156 184 539
a 156 183 48
a 157 186 535
a 157 185 136
a 157 184 752
a 158 187 616
a 158 186 493
a 158 185 340
a 159 188 430
a 159 187 505
a 159 186 128
a 160 189 686
a 160 188 565
a 160 187 50
a 161 190 336
a 161 189 144
a 161 188 430
a 162 191 439
a 162 190 501
a 162 189 778
a 163 192 290
a 163 191 150
a 163 190 772
a 164 193 293
a 164 192 389
a 164 191 168
a 165 194 345
a 165 193 744
a 165 192 196
a 166 195 83
a 166 194 791
a 166 193 430
a 167 196 570
a 167 195 742
a 167 194 141
a 168 197 262
a 168 196 633
a 168 195 227
a 169 170 318
a 169 197 761
a 169 196 43
a 170 199 82
a 170 198 362
a 170 225 24
a 171 200 226
a 171 199 791
a 171 198 710
a 172 201 278
a 172 200 768
a 172 199 597
a 173 202 427
a 173 201 291
a 173 200 235
a 174 203 15
a 174 202 458
a 174 201 525
a 175 204 759
a 175 203 206
a 175 202 369
a 176 205 301
a 176 204 187
a 176 203 713
a 177 206 595
a 177 205 327
a 177 204 347
a 178 207 779
a 178 206 553
a 178 205 117
a 179 208 291
a 179 207 147
a 179 206 730
a 180 209 652
a 180 208 171
a 180 207 248
a 181 210 194
a 181 209 432
a 181 208 681
a 182 211 513
a 182 210 228
a 182 209 458
a 183 212 356
a 183 211 15
a 183 210 287
a 184 213 13
a 184 212 91
a 184 211 713
a 185 214 570
a 185 213 11
a 185 212 280
a 186 215 756
a 186 214 275
a 186 213 590
a 187 216 634
a 187 215 621
a 187 214 442
a 188 217 739
a 188 216 289
a 188 215 588
a 189 218 85
a 189 217 571
a 189 216 567
a 190 219 607
a 190 218 18
a 190 217 57
a 191 220 238
a 191 219 250
a 191 218 261
a 192 221 18
a 192 220 260
a 192 219 6
a 193 222 384
a 193 221 546
a 193 220 519
a 194 223 474
a 194 222 459
a 194 221 74
a 195 224 484
a 195 223 290
a 195 222 438
a 196 225 758
a 196 224 79
a 196 223 208
a 197 198 130
a 197 225 72
a 197 224 515
a 198 227 419
a 198 226 660
a 198 253 701
a 199 228 189
a 199 227 426
a 199 226 639
a 200 229 558
a 200 228 34
a 200 227 275
a 201 230 359
a 201 229 294
a 201 228 82
a 202 231 618
a 202 230 300
a 202 229 671
a 203 232 364
a 203 231 370
a 203 230 240
a 204 233 374
a 204 232 795
a 204 231 623
a 205 234 663
a 205 233 432
a 205 232 648
a 206 235 293
a 206 234 191
a 206 233 683
a 207 236 716
a 207 235 258
a 207 234 192
a 208 237 575
a 208 236 158
a 208 235 322
a 209 238 552
a 209 237 348
a 209 236 292
a 210 239 138
a 210 238 622
a 210 237 32
a 211 240 431
a 211 239 255
a 211 238 141
a 212 241 282
a 212 240 126
a 212 239 499
a 213 242 203
a 213 241 717
a 213 240 317
a 214 243 197
a 214 242 540
a 214 241 232
a 215 244 181
a 215 243 739
a 215 242 605
a 216 245 371
a 216 244 622
a 216 243 19
a 217 246 180
a 217 245 13
a 217 244 663
a 218 247 337
a 218 246 686
a 218 245 578
a 219 248 684
a 219 247 177
a 219 246 705
a 220 249 58
a 220 248 560
a 220 247 8
a 221 250 312
a 221 249 700
a 221 248 145
a 222 251 437
a 222 250 751
a 222 249 128
a 223 252 706
a 223 251 619
a 223 250 761
a 224 253 445
a 224 252 50
a 224 251 164
a 225 226 735
a 225 253 206
a 225 252 712
a 226 255 556
a 226 254 576
a 226 281 92
a 227 256 569
a 227 255 790
a 227 254 15
a 228 257 6
a 228 256 119
a 228 255 194
a 229 258 183
a 229 257 23
a 229 256 83
a 230 259 294
a 230 258 31
a 230 257 318
a 231 260 194
a 231 259 527
a 231 258 375
a 232 261 144
a 232 260 654
a 232 259 687
a 233 262 314
a 233 261 615
a 233 260 675
a 234 263 363
a 234 262 778
a 234 261 580
a 235 264 120
a 235 263 689
a 235 262 576
a 236 265 695
a 236 264 333
a 236 263 511
a 237 266 236
a 237 265 347
a 237 264 618
a 238 267 354
a 238 266 92
a 238 265 738
a 239 268 729
a 239 267 174
a 239 266 744
a 240 269 311
a 240 268 492
a 240 267 126
a 241 270 37
a 241 269 418
a 241 268 419
a 242 271 691
a 242 270 656
a 242 269 164
a 243 272 505
a 243 271 531
a 243 270 659
a 244 273 34
a 244 272 662
a 244 271 172
a 245 274 274
a 245 273 790
a 245 272 86
a 246 275 606
a 246 274 52
a 246 273 205
a 247 276 504
a 247 275 669
a 247 274 451
a 248 277 596
a 248 276 607
a 248 275 686
a 249 278 321
a 249 277 550
a 249 276 240
a 250 279 364
a 250 278 227
a 250 277 168
a 251 280 782
a 251 279 197
a 251 278 478
a 252 281 637
a 252 280 361
a 252 279 66
a 253 254 719
a 253 281 571
a 253 280 756
a 254 283 133
a 254 282 743
a 254 309 12
a 255 284 122
a 255 283 380
a 255 282 397
a 256 285 173
a 256 284 585
a 256 283 671
a 257 286 41
a 257 285 235
a 257 284 28
a 258 287 199
a 258 286 473
a 258 285 84
a 259 288 748
a 259 287 264
a 259 286 231
a 260 289 174
a 260 288 431
a 260 287 551
a 261 290 723
a 261 289 460
a 261 288 115
a 262 291 283
a 262 290 525
a 262 289 448
a 263 292 405
a 263 291 33
a 263 290 636
a 264 293 699
a 264 292 44
a 264 291 555
a 265 294 279
a 265 293 441
a 265 292 687
a 266 295 63
a 266 294 663
a 266 293 360
a 267 296 649
a 267 295 242
a 267 294 84
a 268 297 673
a 268 296 325
a 268 295 124
a 269 298 136
a 269 297 555
a 269 296 323
a 270 299 566
a 270 298 658
a 270 297 622
a 271 300 577
a 271 299 772
a 271 298 348
a 272 301 302
a 272 300 419
a 272 299 270
a 273 302 334
a 273 301 254
a 273 300 104
a 274 303 729
a 274 302 360
a 274 301 508
a 275 304 721
a 275 303 598
a 275 302 407
a 276 305 135
a 276 304 509
a 276 303 685
a 277 306 377
a 277 305 592
a 277 304 299
a 278 307 253
a 278 306 716
a 278 305 499
a 279 308 360
a 279 307 590
a 279 306 372
a 280 309 217
a 280 308 411
a 280 307 507
a 281 282 540
a 281 309 310
a 281 308 625
a 282 311 510
a 282 310 579
a 282 337 401
a 283 312 315
a 283 311 682
a 283 310 254
a 284 313 227
a 284 312 390
a 284 311 139
a 285 314 24
a 285 313 348
a 285 312 68
a 286 315 533
a 286 314 232
a 286 313 788
a 287 316 676
a 287 315 82
a 287 314 123
a 288 317 591
a 288 316 580
a 288 315 51
a 289 318 732
a 289 317 151
a 289 316 655
a 290 319 695
a 290 318 658
a 290 317 214
a 291 320 204
a 291 319 482
a 291 318 782
a 292 321 783
a 292 320 434
a 292 319 521
a 293 322 216
a 293 321 688
a 293 320 582
a 294 323 605
a 294 322 26
a 294 321 97
a 295 324 152
a 295 323 93
a 295 322 323
a 296 325 735
a 296 324 433
a 296 323 698
a 297 326 16
a 297 325 107
a 297 324 782
a 298 327 596
a 298 326 509
a 298 325 658
a 299 328 298
a 299 327 363
a 299 326 800
a 300 329 155
a 300 328 577
a 300 327 284
a 301 330 188
a 301 329 110
a 301 328 178
a 302 331 622
a 302 330 183
a 302 329 733
a 303 332 61
a 303 331 764
a 303 330 267
a 304 333 86
a 304 332 412
a 304 331 483
a 305 334 531
a 305 333 286
a 305 332 287
a 306 335 515
a 306 334 184
a 306 333 791
a 307 336 621
a 307 335 517
a 307 334 277
a 308 337 329
a 308 336 726
a 308 335 293
a 309 310 691
a 309 337 726
a 309 336 440
a 310 339 19
a 310 338 561
a 310 365 737
a 311 340 129
a 311 339 738
a 311 338 444
a 312 341 311
a 312 340 222
a 312 339 183
a 313 342 626
a 313 341 489
a 313 340 356
a 314 343 238
a 314 342 171
a 314 341 416
a 315 344 523
a 315 343 9
a 315 342 54
a 316 345 258
a 316 344 351
a 316 343 584
a 317 346 327
a 317 345 628
a 317 344 298
a 318 347 252
a 318 346 472
a 318 345 470
a 319 348 529
a 319 347 111
a 319 346 350
a 320 349 289
a 320 348 399
a 320 347 240
a 321 350 578
a 321 349 394
a 321 348 611
a 322 351 800
a 322 350 577
a 322 349 291
a 323 352 488
a 323 351 132
a 323 350 153
a 324 353 658
a 324 352 100
a 324 351 778
a 325 354 218
a 325 353 153
a 325 352 567
a 326 355 569
a 326 354 736
a 326 353 642
a 327 356 396
a 327 355 585
a 327 354 99
a 328 357 67
a 328 356 606
a 328 355 777
a 329 358 529
a 329 357 155
a 329 356 229
a 330 359 479
a 330 358 394
a 330 357 309
a 331 360 73
a 331 359 556
a 331 358 598
a 332 361 201
a 332 360 46
a 332 359 375
a 333 362 684
a 333 361 198
a 333 360 726
a 334 363 783
a 334 362 528
a 334 361 413
a 335 364 135
a 335 363 294
a 335 362 622
a 336 365 422
a 336 364 135
a 336 363 40
a 337 338 558
a 337 365 586
a 337 364 160
a 338 367 363
a 338 366 562
a 338 393 555
a 339 368 517
a 339 367 342
a 339 366 173
a 340 369 463
a 340 368 651
a 340 367 253
a 341 370 218
a 341 369 800
a 341 368 283
a 342 371 616
a 342 370 374
a 342 369 355
a 343 372 365
a 343 371 652
a 343 370 107
a 344 373 92
a 344 372 264
a 344 371 791
a 345 374 738
a 345 373 438
a 345 372 773
a 346 375 72
a 346 374 29
a 346 373 460
a 347 376 657
a 347 375 188
a 347 374 81
a 348 377 771
a 348 376 742
a 348 375 191
a 349 378 312
a 349 377 466
a 349 376 553
a 350 379 162
a 350 378 718
a 350 377 270
a 351 380 513
a 351 379 552
a 351 378 284
a 352 381 439
a 352 380 107
a 352 379 501
a 353 382 290
a 353 381 565
a 353 380 668
a 354 383 105
a 354 382 555
a 354 381 233
a 355 384 542
a 355 383 80
a 355 382 676
a 356 385 570
a 356 384 539
a 356 383 613
a 357 386 757
a 357 385 171
a 357 384 237
a 358 387 250
a 358 386 361
a 358 385 445
a 359 388 715
a 359 387 466
a 359 386 415
a 360 389 184
a 360 388 287
a 360 387 727
a 361 390 736
a 361 389 570
a 361 388 440
a 362 391 394
a 362 390 622
a 362 389 153
a 363 392 510
a 363 391 490
a 363 390 591
a 364 393 265
a 364 392 274
a 364 391 432
a 365 366 696
a 365 393 149
a 365 392 536
a 366 395 434
a 366 394 314
a 366 421 278
a 367 396 156
a 367 395 550
a 367 394 399
a 368 397 69
a 368 396 194
a 368 395 356
a 369 398 534
a 369 397 161
a 369 396 157
a 370 399 372
a 370 398 87
a 370 397 424
a 371 400 141
a 371 399 78
a 371 398 159
a 372 401 762
a 372 400 582
a 372 399 446
a 373 402 451
a 373 401 724
a 373 400 391
a 374 403 276
a 374 402 355
a 374 401 101
a 375 404 425
a 375 403 443
a 375 402 365
a 376 405 290
a 376 404 720
a 376 403 260
a 377 406 39
a 377 405 670
a 377 404 245
a 378 407 584
a 378 406 577
a 378 405 752
a 379 408 744
a 379 407 734
a 379 406 20
a 380 409 382
a 380 408 357
a 380 407 105
a 381 410 12
a 381 409 67
a 381 408 476
a 382 411 593
a 382 410 513
a 382 409 168
a 383 412 69
a 383 411 103
a 383 410 130
a 384 413 775
a 384 412 203
a 384 411 132
a 385 414 417
a 385 413 119
a 385 412 408
a 386 415 688
a 386 414 378
a 386 413 384
a 387 416 558
a 387 415 174
a 387 414 673
a 388 417 334
a 388 416 126
a 388 415 263
a 389 418 619
a 389 417 497
a 389 416 398
a 390 419 527
a 390 418 154
a 390 417 342
a 391 420 594
a 391 419 181
a 391 418 275
a 392 421 306
a 392 420 349
a 392 419 286
a 393 394 760
a 393 421 30
a 393 420 431
a 394 423 163
a 394 422 161
a 394 449 499
a 395 424 281
a 395 423 120
a 395 422 25
a 396 425 211
a 396 424 503
a 396 423 442
a 397 426 384
a 397 425 727
a 397 424 681
a 398 427 509
a 398 426 541
a 398 425 790
a 399 428 558
a 399 427 139
a 399 426 324
a 400 429 711
a 400 428 32
a 400 427 494
a 401 430 91
a 401 429 306
a 401 428 221
a 402 431 439
a 402 430 592
a 402 429 14
a 403 432 468
a 403 431 222
a 403 430 671
a 404 433 181
a 404 432 272
a 404 431 630
a 405 434 300
a 405 433 296
a 405 432 344
a 406 435 355
a 406 434 289
a 406 433 625
a 407 436 633
a 407 435 170
a 407 434 387
a 408 437 374
a 408 436 511
a 408 435 770
a 409 438 64
a 409 437 34
a 409 436 31
a 410 439 95
a 410 438 80
a 410 437 588
a 411 440 752
a 411 439 300
a 411 438 50
a 412 441 543
a 412 440 665
a 412 439 140
a 413 442 316
a 413 441 87
a 413 440 131
a 414 443 587
a 414 442 716
a 414 441 150
a 415 444 435
a 415 443 612
a 415 442 682
a 416 445 723
a 416 444 788
a 416 443 534
a 417 446 444
a 417 445 374
a 417 444 88
a 418 447 155
a 418 446 343
a 418 445 720
a 419 448 540
a 419 447 725
a 419 446 645
a 420 449 619
a 420 448 64
a 420 447 260
a 421 422 470
a 421 449 113
a 421 448 354
a 422 451 334
a 422 450 605
a 422 477 306
a 423 452 420
a 423 451 735
a 423 450 400
a 424 453 688
a 424 452 436
a 424 451 716
a 425 454 51
a 425 453 670
a 425 452 54
a 426 455 38
a 426 454 403
a 426 453 488
a 427 456 411
a 427 455 490
a 427 454 763
a 428 457 305
a 428 456 761
a 428 455 406
a 429 458 230
a 429 457 158
a 429 456 112
a 430 459 293
a 430 458 417
a 430 457 204
a 431 460 406
a 431 459 323
a 431 458 22
a 432 461 562
a 432 460 180
a 432 459 44
a 433 462 48
a 433 461 579
a 433 460 729
a 434 463 483
a 434 462 46
a 434 461 701
a 435 464 352
a 435 463 100
a 435 462 588
a 436 465 754
a 436 464 587
a 436 463 190
a 437 466 795
a 437 465 549
a 437 464 227
a 438 467 308
a 438 466 507
a 438 465 637
a 439 468 465
a 439 467 618
a 439 466 493
a 440 469 81
a 440 468 21
a 440 467 722
a 441 470 755
a 441 469 395
a 441 468 567
a 442 471 134
a 442 470 438
a 442 469 524
a 443 472 713
a 443 471 718
a 443 470 285
a 444 473 310
a 444 472 618
a 444 471 332
a 445 474 409
a 445 473 757
a 445 472 366
a 446 475 196
a 446 474 146
a 446 473 270
a 447 476 296
a 447 475 372
a 447 474 223
a 448 477 2
a 448 476 560
a 448 475 570
a 449 450 172
a 449 477 253
a 449 476 77
a 450 479 544
a 450 478 526
a 450 505 541
a 451 480 490
a 451 479 292
a 451 478 173
a 452 481 479
a 452 480 367
a 452 479 128
a 453 482 397
a 453 481 651
a 453 480 613
a 454 483 214
a 454 482 534
a 454 481 525
a 455 484 171
a 455 483 100
a 455 482 387
a 456 485 316
a 456 484 369
a 456 483 795
a 457 486 240
a 457 485 143
a 457 484 542
a 458 487 799
a 458 486 264
a 458 485 38
a 459 488 603
a 459 487 340
a 459 486 391
a 460 489 329
a 460 488 432
a 460 487 114
a 461 490 172
a 461 489 605
a 461 488 658
a 462 491 539
a 462 490 284
a 462 489 347
a 463 492 741
a 463 491 96
a 463 490 26
a 464 493 27
a 464 492 173
a 464 491 422
a 465 494 126
a 465 493 559
a 465 492 635
a 466 495 46
a 466 494 553
a 466 493 357
a 467 496 540
a 467 495 647
a 467 494 673
a 468 497 4
a 468 496 684
a 468 495 112
a 469 498 343
a 469 497 626
a 469 496 462
a 470 499 775
a 470 498 740
a 470 497 617
a 471 500 131
a 471 499 597
a 471 498 145
a 472 501 414
a 472 500 495
a 472 499 668
a 473 502 61
a 473 501 520
a 473 500 758
a 474 503 233
a 474 502 493
a 474 501 251
a 475 504 791
a 475 503 680
a 475 502 277
a 476 505 96
a 476 504 236
a 476 503 754
a 477 478 742
a 477 505 108
a 477 504 799
a 478 507 177
a 478 506 571
a 478 533 538
a 479 508 2
a 479 507 585
a 479 506 541
a 480 509 293
a 480 508 401
a 480 507 84
a 481 510 441
a 481 509 97
a 481 508 410
a 482 511 136
a 482 510 764
a 482 509 540
a 483 512 207
a 483 511 274
a 483 510 505
a 484 513 252
a 484 512 524
a 484 511 565
a 485 514 131
a 485 513 352
a 485 512 350
a 486 515 366
a 486 514 305
a 486 513 340
a 487 516 26
a 487 515 303
a 487 514 787
a 488 517 148
a 488 516 392
a 488 515 280
a 489 518 732
a 489 517 485
a 489 516 8
a 490 519 332
a 490 518 120
a 490 517 362
a 491 520 428
a 491 519 529
a 491 518 654
a 492 521 744
a 492 520 620
a 492 519 295
a 493 522 569
a 493 521 324
a 493 520 782
a 494 523 644
a 494 522 440
a 494 521 188
a 495 524 195
a 495 523 789
a 495 522 439
a 496 525 499
a 496 524 681
a 496 523 121
a 497 526 353
a 497 525 219
a 497 524 487
a 498 527 296
a 498 526 499
a 498 525 64
a 499 528 780
a 499 527 506
a 499 526 211
a 500 529 99
a 500 528 67
a 500 527 143
a 501 530 179
a 501 529 273
a 501 528 26
a 502 531 798
a 502 530 567
a 502 529 454
a 503 532 673
a 503 531 548
a 503 530 749
a 504 533 313
a 504 532 287
a 504 531 517
a 505 506 301
a 505 533 278
a 505 532 360
a 506 535 533
a 506 534 398
a 506 561 554
a 507 536 752
a 507 535 436
a 507 534 604
a 508 537 450
a 508 536 499
a 508 535 508
a 509 538 507
a 509 537 262
a 509 536 355
a 510 539 126
a 510 538 404
a 510 537 335
a 511 540 398
a 511 539 429
a 511 538 785
a 512 541 516
a 512 540 434
a 512 539 164
a 513 542 615
a 513 541 382
a 513 540 161
a 514 543 101
a 514 542 98
a 514 541 386
a 515 544 730
a 515 543 9
a 515 542 698
a 516 545 680
a 516 544 114
a 516 543 550
a 517 546 315
a 517 545 717
a 517 544 635
a 518 547 366
a 518 546 776
a 518 545 586
a 519 548 627
a 519 547 331
a 519 546 587
a 520 549 230
a 520 548 217
a 520 547 293
a 521 550 210
a 521 549 553
a 521 548 770
a 522 551 196
a 522 550 716
a 522 549 367
a 523 552 577
a 523 551 429
a 523 550 434
a 524 553 227
a 524 552 14
a 524 551 248
a 525 554 587
a 525 553 263
a 525 552 701
a 526 555 701
a 526 554 364
a 526 553 630
a 527 556 617
a 527 555 198
a 527 554 509
a 528 557 145
a 528 556 783
a 528 555 376
a 529 558 27
a 529 557 121
a 529 556 741
a 530 559 595
a 530 558 766
a 530 557 119
a 531 560 347
a 531 559 735
a 531 558 700
a 532 561 263
a 532 560 654
a 532 559 109
a 533 534 243
a 533 561 287
a 533 560 304
a 534 563 608
a 534 562 535
a 534 589 433
a 535 564 70
a 535 563 435
a 535 562 211
a 536 565 785
a 536 564 616
a 536 563 797
a 537 566 183
a 537 565 325
a 537 564 697
a 538 567 517
a 538 566 252
a 538 565 66
a 539 568 638
a 539 567 544
a 539 566 562
a 540 569 603
a 540 568 662
a 540 567 588
a 541 570 89
a 541 569 561
a 541 568 382
a 542 571 742
a 542 570 221
a 542 569 280
a 543 572 229
a 543 571 525
a 543 570 94
a 544 573 763
a 544 572 509
a 544 571 336
a 545 574 397
a 545 573 271
a 545 572 143
a 546 575 212
a 546 574 267
a 546 573 564
a 547 576 88
a 547 575 516
a 547 574 101
a 548 577 691
a 548 576 133
a 548 575 635
a 549 578 434
a 549 577 694
a 549 576 351
a 550 579 295
a 550 578 481
a 550 577 540
a 551 580 55
a 551 579 414
a 551 578 694
a 552 581 276
a 552 580 245
a 552 579 783
a 553 582 352
a 553 581 339
a 553 580 724
a 554 583 412
a 554 582 674
a 554 581 152
a 555 584 682
a 555 583 369
a 555 582 466
a 556 585 500
a 556 584 484
a 556 583 414
a 557 586 215
a 557 585 136
a 557 584 178
a 558 587 347
a 558 586 770
a 558 585 265
a 559 588 592
a 559 587 673
a 559 586 508
a 560 589 624
a 560 588 412
a 560 587 141
a 561 562 237
a 561 589 658
a 561 588 788
a 562 591 482
a 562 590 640
a 562 617 394
a 563 592 372
a 563 591 115
a 563 590 221
a 564 593 597
a 564 592 619
a 564 591 572
a 565 594 165
a 565 593 284
a 565 592 535
a 566 595 201
a 566 594 698
a 566 593 768
a 567 596 336
a 567 595 75
a 567 594 468
a 568 597 658
a 568 596 691
a 568 595 234
a 569 598 530
a 569 597 750
a 569 596 133
a 570 599 493
a 570 598 91
a 570 597 724
a 571 600 350
a 571 599 430
a 571 598 548
a 572 601 541
a 572 600 23
a 572 599 336
a 573 602 656
a 573 601 244
a 573 600 369
a 574 603 26
a 574 602 367
a 574 601 740
a 575 604 661
a 575 603 454
a 575 602 537
a 576 605 558
a 576 604 421
a 576 603 253
a 577 606 184
a 577 605 88
a 577 604 5
a 578 607 427
a 578 606 322
a 578 605 341
a 579 608 728
a 579 607 6
a 579 606 198
a 580 609 370
a 580 608 729
a 580 607 279
a 581 610 799
a 581 609 28
a 581 608 771
a 582 611 22
a 582 610 364
a 582 609 321
a 583 612 617
a 583 611 284
a 583 610 61
a 584 613 183
a 584 612 224
a 584 611 268
a 585 614 636
a 585 613 312
a 585 612 293
a 586 615 609
a 586 614 564
a 586 613 154
a 587 616 696
a 587 615 569
a 587 614 263
a 588 617 569
a 588 616 461
a 588 615 799
a 589 590 574
a 589 617 210
a 589 616 777
a 590 619 55
a 590 618 488
a 590 645 704
a 591 620 82
a 591 619 458
a 591 618 274
a 592 621 797
a 592 620 330
a 592 619 624
a 593 622 281
a 593 621 743
a 593 620 645
a 594 623 56
a 594 622 210
a 594 621 13
a 595 624 367
a 595 623 55
a 595 622 548
a 596 625 482
a 596 624 560
a 596 623 735
a 597 626 602
a 597 625 374
a 597 624 543
a 598 627 614
a 598 626 372
a 598 625 439
a 599 628 23
a 599 627 700
a 599 626 559
a 600 629 62
a 600 628 156
a 600 627 685
a 601 630 72
a 601 629 781
a 601 628 291
a 602 631 401
a 602 630 604
a 602 629 724
a 603 632 343
a 603 631 1
a 603 630 721
a 604 633 105
a 604 632 13
a 604 631 553
a 605 634 159
a 605 633 560
a 605 632 608
a 606 635 718
a 606 634 495
a 606 633 526
a 607 636 291
a 607 635 237
a 607 634 559
a 608 637 215
a 608 636 227
a 608 635 361
a 609 638 466
a 609 637 338
a 609 636 174
a 610 639 621
a 610 638 222
a 610 637 549
a 611 640 601
a 611 639 64
a 611 638 610
a 612 641 405
a 612 640 787
a 612 639 233
a 613 642 757
a 613 641 259
a 613 640 634
a 614 643 769
a 614 642 11
a 614 641 528
a 615 644 529
a 615 643 170
a 615 642 632
a 616 645 575
a 616 644 247
a 616 643 342
a 617 618 11
a 617 645 6
a 617 644 259
a 618 647 590
a 618 646 366
a 618 673 102
a 619 648 127
a 619 647 91
a 619 646 668
a 620 649 700
a 620 648 639
a 620 647 333
a 621 650 763
a 621 649 1
a 621 648 506
a 622 651 749
a 622 650 233
a 622 649 658
a 623 652 208
a 623 651 418
a 623 650 262
a 624 653 570
a 624 652 498
a 624 651 570
a 625 654 740
a 625 653 329
a 625 652 539
a 626 655 186
a 626 654 671
a 626 653 619
a 627 656 543
a 627 655 481
a 627 654 393
a 628 657 108
a 628 656 134
a 628 655 755
a 629 658 551
a 629 657 1
a 629 656 544
a 630 659 389
a 630 658 686
a 630 657 222
a 631 660 741
a 631 659 391
a 631 658 121
a 632 661 526
a 632 660 248
a 632 659 435
a 633 662 495
a 633 661 62
a 633 660 384
a 634 663 192
a 634 662 631
a 634 661 143
a 635 664 521
a 635 663 721
a 635 662 264
a 636 665 743
a 636 664 539
a 636 663 555
a 637 666 423
a 637 665 131
a 637 664 293
a 638 667 109
a 638 666 86
a 638 665 35
a 639 668 109
a 639 667 181
a 639 666 495
a 640 669 346
a 640 668 403
a 640 667 245
a 641 670 288
a 641 669 523
a 641 668 185
a 642 671 536
a 642 670 158
a 642 669 126
a 643 672 149
a 643 671 93
a 643 670 203
a 644 673 331
a 644 672 587
a 644 671 697
a 645 646 252
a 645 673 50
a 645 672 441
a 646 675 790
a 646 674 157
a 646 701 513
a 647 676 473
a 647 675 449
a 647 674 455
a 648 677 558
a 648 676 483
a 648 675 429
a 649 678 738
a 649 677 177
a 649 676 89
a 650 679 340
a 650 678 421
a 650 677 198
a 651 680 415
a 651 679 606
a 651 678 95
a 652 681 124
a 652 680 283
a 652 679 383
a 653 682 216
a 653 681 37
a 653 680 470
a 654 683 354
a 654 682 285
a 654 681 618
a 655 684 755
a 655 683 725
a 655 682 500
a 656 685 111
a 656 684 437
a 656 683 751
a 657 686 559
a 657 685 443
a 657 684 293
a 658 687 242
a 658 686 424
a 658 685 765
a 659 688 770
a 659 687 512
a 659 686 522
a 660 689 391
a 660 688 261
a 660 687 11
a 661 690 548
a 661 689 356
a 661 688 703
a 662 691 382
a 662 690 290
a 662 689 317
a 663 692 418
a 663 691 759
a 663 690 440
a 664 693 702
a 664 692 576
a 664 691 207
a 665 694 179
a 665 693 275
a 665 692 112
a 666 695 167
a 666 694 578
a 666 693 66
a 667 696 162
a 667 695 70
a 667 694 177
a 668 697 137
a 668 696 34
a 668 695 735
a 669 698 200
a 669 697 107
a 669 696 528
a 670 699 461
a 670 698 117
a 670 697 498
a 671 700 368
a 671 699 371
a 671 698 440
a 672 701 209
a 672 700 687
a 672 699 187
a 673 674 167
a 673 701 678
a 673 700 568
a 674 703 294
a 674 702 436
a 674 729 537
a 675 704 120
a 675 703 547
a 675 702 438
a 676 705 697
a 676 704 613
a 676 703 168
a 677 706 318
a 677 705 341
a 677 704 335
a 678 707 351
a 678 706 275
a 678 705 496
a 679 708 9
a 679 707 3
a 679 706 632
a 680 709 126
a 680 708 52
a 680 707 31
a 681 710 48
a 681 709 491
a 681 708 43
a 682 711 735
a 682 710 677
a 682 709 762
a 683 712 164
a 683 711 796
a 683 710 170
a 684 713 152
a 684 712 532
a 684 711 336
a 685 714 698
a 685 713 521
a 685 712 181
a 686 715 62
a 686 714 689
a 686 713 301
a 687 716 402
a 687 715 575
a 687 714 197
a 688 717 229
a 688 716 270
a 688 715 515
a 689 718 583
a 689 717 453
a 689 716 417
a 690 719 634
a 690 718 483
a 690 717 426
a 691 720 324
a 691 719 78
a 691 718 103
a 692 721 552
a 692 720 391
a 692 719 150
a 693 722 547
a 693 721 561
a 693 720 436
a 694 723 630
a 694 722 448
a 694 721 600
a 695 724 350
a 695 723 629
a 695 722 303
a 696 725 590
a 696 724 129
a 696 723 200
a 697 726 364
a 697 725 677
a 697 724 614
a 698 727 185
a 698 726 391
a 698 725 567
a 699 728 637
a 699 727 360
a 699 726 795
a 700 729 672
a 700 728 785
a 700 727 577
a 701 702 301
a 701 729 439
a 701 728 410
a 702 731 691
a 702 730 140
a 702 757 285
a 703 732 451
a 703 731 576
a 703 730 36
a 704 733 451
a 704 732 727
a 704 731 582
a 705 734 279
a 705 733 229
a 705 732 763
a 706 735 759
a 706 734 780
a 706 733 665
a 707 736 635
a 707 735 145
a 707 734 454
a 708 737 578
a 708 736 712
a 708 735 370
a 709 738 137
a 709 737 258
a 709 736 106
a 710 739 473
a 710 738 35
a 710 737 743
a 711 740 111
a 711 739 796
a 711 738 166
a 712 741 250
a 712 740 633
a 712 739 466
a 713 742 377
a 713 741 668
a 713 740 708
a 714 743 303
a 714 742 2
a 714 741 359
a 715 744 83
a 715 743 764
a 715 742 361
a 716 745 415
a 716 744 628
a 716 743 639
a 717 746 559
a 717 745 634
a 717 744 597
a 718 747 470
a 718 746 555
a 718 745 431
a 719 748 728
a 719 747 660
a 719 746 208
a 720 749 314
a 720 748 602
a 720 747 696
a 721 750 661
a 721 749 319
a 721 748 368
a 722 751 493
a 722 750 336
a 722 749 30
a 723 752 713
a 723 751 244
a 723 750 632
a 724 753 714
a 724 752 154
a 724 751 208
a 725 754 229
a 725 753 514
a 725 752 63
a 726 755 57
a 726 754 352
a 726 753 497
a 727 756 242
a 727 755 500
a 727 754 111
a 728 757 796
a 728 756 482
a 728 755 670
a 729 730 655
a 729 757 690
a 729 756 691
a 730 759 9
a 730 758 137
a 730 785 170
a 731 760 327
a 731 759 505
a 731 758 483
a 732 761 215
a 732 760 534
a 732 759 696
a 733 762 458
a 733 761 365
a 733 760 388
a 734 763 611
a 734 762 125
a 734 761 652
a 735 764 324
a 735 763 539
a 735 762 565
a 736 765 227
a 736 764 235
a 736 763 794
a 737 766 726
a 737 765 346
a 737 764 402
a 738 767 407
a 738 766 567
a 738 765 195
a 739 768 648
a 739 767 457
a 739 766 190
a 740 769 785
a 740 768 627
a 740 767 396
a 741 770 41
a 741 769 661
a 741 768 404
a 742 771 574
a 742 770 556
a 742 769 283
a 743 772 491
a 743 771 496
a 743 770 49
a 744 773 167
a 744 772 347
a 744 771 506
a 745 774 705
a 745 773 464
a 745 772 668
a 746 775 491
a 746 774 9
a 746 773 191
a 747 776 36
a 747 775 762
a 747 774 769
a 748 777 602
a 748 776 156
a 748 775 694
a 749 778 611
a 749 777 345
a 749 776 652
a 750 779 789
a 750 778 292
a 750 777 52
a 751 780 649
a 751 779 248
a 751 778 36
a 752 781 757
a 752 780 82
a 752 779 76
a 753 782 452
a 753 781 130
a 753 780 201
a 754 783 350
a 754 782 635
a 754 781 243
a 755 784 365
a 755 783 502
a 755 782 761
a 756 785 373
a 756 784 244
a 756 783 665
a 757 758 334
a 757 785 212
a 757 784 356
a 758 787 41
a 758 786 457
a 758 813 743
a 759 788 737
a 759 787 660
a 759 786 97
a 760 789 229
a 760 788 711
a 760 787 259
a 761 790 476
a 761 789 298
a 761 788 247
a 762 791 557
a 762 790 725
a 762 789 95
a 763 792 686
a 763 791 126
a 763 790 51
a 764 793 72
a 764 792 720
a 764 791 54
a 765 794 125
a 765 793 681
a 765 792 756
a 766 795 368
a 766 794 97
a 766 793 320
a 767 796 131
a 767 795 4
a 767 794 245
a 768 797 587
a 768 796 747
a 768 795 130
a 769 798 446
a 769 797 395
a 769 796 171
a 770 799 709
a 770 798 653
a 770 797 459
a 771 800 206
a 771 799 99
a 771 798 687
a 772 801 131
a 772 800 545
a 772 799 714
a 773 802 608
a 773 801 148
a 773 800 22
a 774 803 79
a 774 802 201
a 774 801 259
a 775 804 759
a 775 803 508
a 775 802 330
a 776 805 408
a 776 804 380
a 776 803 454
a 777 806 411
a 777 805 176
a 777 804 373
a 778 807 709
a 778 806 305
a 778 805 503
a 779 808 303
a 779 807 27
a 779 806 641
a 780 809 507
a 780 808 486
a 780 807 287
a 781 810 605
a 781 809 724
a 781 808 547
a 782 811 702
a 782 810 638
a 782 809 752
a 783 812 49
a 783 811 211
a 783 810 434
a 784 813 601
a 784 812 470
a 784 811 593
a 785 786 309
a 785 813 351
a 785 812 672
a 786 815 688
a 786 814 357
a 786 841 182
a 787 816 63
a 787 815 729
a 787 814 589
a 788 817 719
a 788 816 784
a 788 815 552
a 789 818 746
a 789 817 624
a 789 816 460
a 790 819 783
a 790 818 462
a 790 817 315
a 791 820 258
a 791 819 208
a 791 818 373
a 792 821 95
a 792 820 512
a 792 819 530
a 793 822 658
a 793 821 145
a 793 820 431
a 794 823 327
a 794 822 738
a 794 821 479
a 795 824 229
a 795 823 161
a 795 822 279
a 796 825 585
a 796 824 342
a 796 823 587
a 797 826 66
a 797 825 483
a 797 824 26
a 798 827 49
a 798 826 234
a 798 825 440
a 799 828 224
a 799 827 245
a 799 826 359
a 800 829 686
a 800 828 111
a 800 827 656
a 801 830 445
a 801 829 484
a 801 828 190
a 802 831 156
a 802 830 213
a 802 829 447
a 803 832 301
a 803 831 643
a 803 830 94
a 804 833 590
a 804 832 321
a 804 831 751
a 805 834 750
a 805 833 151
a 805 832 629
a 806 835 643
a 806 834 738
a 806 833 57
a 807 836 325
a 807 835 315
a 807 834 642
a 808 837 110
a 808 836 755
a 808 835 259
a 809 838 355
a 809 837 665
a 809 836 659
a 810 839 17
a 810 838 520
a 810 837 82
a 811 840 500
a 811 839 261
a 811 838 319
a 812 841 264
a 812 840 707
a 812 839 764
a 813 814 106
a 813 841 800
a 813 840 119
a 814 842 2400
a 815 842 2400
a 816 842 2400
a 817 842 2400
a 818 842 2400
a 819 842 2400
a 820 842 2400
a 821 842 2400
a 822 842 2400
a 823 842 2400
a 824 842 2400
a 825 842 2400
a 826 842 2400
a 827 842 2400
a 828 842 2400
a 829 842 2400
a 830 842 2400
a 831 842 2400
a 832 842 2400
a 833 842 2400
a 834 842 2400
a 835 842 2400
a 836 842 2400
a 837 842 2400
a 838 842 2400
a 839 842 2400
a 840 842 2400
a 841 842 2400
